727412
727412
727412
727412
727412
727234
709781
709781
709781
705175
705175
705175
705175
698835
694587
694587
694587
677945
677945
677945
677215
677215
677215
670880
668456
668456
668456
662882
659356
659356
644855
644855
641829
641829
635530
635530
635530
635530
631921
631921
631020
625671
624822
624519
624519
616212
610829
610829
610829
608079
604844
604844
604844
604844
604844
595088
595088
592018
591417
591417
578450
577083
577083
577083
577083
568313
568313
568313
566850
566850
566850
566850
566850
566850
566850
560803
559314
559314
559314
559314
559314
558169
552397
552397
552397
552397
542485
542485
539456
539456
539456
539456
539456
539456
539456
528235
528235
528235
528235
528235
